p cnf 101 94
-1 86 0 
-2 10 86 0 
-3 16 56 72 73 86 0 
-4 87 -86 0 
-5 87 -86 0 
-6 51 87 -86 0 
-7 -8 34 40 84 86 0 
-9 33 -10 2 86 0 
-9 33 88 -86 0 
-11 89 -22 -86 0 
-12 87 -86 0 
-13 30 48 81 83 -10 2 -14 67 87 -86 0 
-15 61 62 64 87 -86 0 
-16 3 56 72 73 86 0 
-17 86 0 
-18 24 28 87 -86 0 
-19 90 -86 0 
-18 24 28 -20 87 -86 0 
-21 91 -86 0 
-22 92 -86 0 
-23 93 -86 0 
-24 18 28 -25 93 -86 0 
-13 30 48 81 83 87 -86 0 
-13 30 48 81 83 -26 68 86 0 
-10 2 -27 32 35 82 86 0 
-5 86 0 
-13 30 48 81 83 -14 67 87 -86 0 
-6 51 86 0 
-22 94 -86 0 
-22 -28 18 24 95 -86 0 
-22 -28 18 24 96 -86 0 
-22 97 -86 0 
-22 98 -86 0 
-22 -29 -28 18 24 96 -86 0 
-22 -30 13 48 81 83 -31 57 97 -86 0 
-22 96 -86 0 
-18 24 28 -32 27 35 82 86 0 
-33 9 -34 8 40 84 -35 27 32 82 86 0 
-36 86 0 
-37 86 0 
-38 47 -39 66 74 87 -86 0 
-40 8 34 84 86 0 
-41 86 0 
-42 86 0 
-43 44 86 0 
-2 10 -36 86 0 
-25 86 0 
-44 43 86 0 
-2 10 87 -86 0 
-18 24 28 86 0 
-45 86 0 
-33 9 -13 30 48 81 83 -41 86 0 
-33 9 -4 -34 8 40 84 -37 86 0 
-4 -46 -43 44 86 0 
-4 -47 38 -48 13 30 81 83 86 0 
-49 99 0 
-38 47 86 0 
-6 51 -46 -18 24 28 -50 86 0 
-49 -51 6 -10 2 -52 75 76 87 -86 0 
-53 -54 86 0 
-55 86 0 
-34 8 40 84 86 0 
-50 86 0 
-56 3 16 72 73 86 0 
-57 31 86 0 
-46 86 0 
-58 69 71 87 -86 0 
-33 9 86 0 
-59 86 0 
-29 -60 86 0 
-51 6 -61 15 62 64 87 -86 0 
-46 -49 -62 15 61 64 87 -86 0 
-63 87 -86 0 
-64 15 61 62 87 -86 0 
-65 -66 39 74 86 0 
-67 14 100 -86 0 
-4 86 0 
-40 8 34 84 87 -86 0 
-68 26 86 0 
-4 -69 58 71 86 0 
-70 -71 58 69 86 0 
-72 3 16 56 73 86 0 
-73 3 16 56 72 86 0 
-12 -74 39 66 95 -86 0 
-75 52 76 87 -86 0 
-18 24 28 -76 52 75 87 -86 0 
-77 86 0 
-8 34 40 84 95 -86 0 
-78 -79 95 -86 0 
-4 -34 8 40 84 86 0 
-4 -40 8 34 84 86 0 
-2 10 -80 86 0 
-33 9 -81 13 30 48 83 -82 27 32 35 86 0 
-83 13 30 48 81 -84 8 34 40 -85 101 -86 0 
